(declare-fun r14 () Real)
(push)
(check-sat)
(pop)
(declare-fun v12 () Bool)
(assert (or (<= 582095008.0 r14) v12))
(assert (and (=> v12 (<= 582095008.0 r14)) (not (<= 582095008.0 r14))))
(push)
(check-sat)
(push)
(push)
(push)
(push)
(push)
(check-sat)
(pop)
(pop)
(pop)
(check-sat)
(pop)
(check-sat)
(pop)
(pop)
(check-sat)
